p tw 128 21121 2 
1 65 
1 68 
1 70 
1 72 
1 74 
1 76 
1 78 
1 80 
1 82 
1 84 
1 86 
1 88 
1 90 
1 92 
1 94 
1 96 
1 98 
1 100 
1 102 
1 104 
1 106 
1 108 
1 110 
1 112 
1 114 
1 116 
1 118 
1 120 
1 122 
1 124 
1 126 
1 128 
2 66 
2 67 
2 69 
2 71 
2 73 
2 75 
2 77 
2 79 
2 81 
2 83 
2 85 
2 87 
2 89 
2 91 
2 93 
2 95 
2 97 
2 99 
2 101 
2 103 
2 105 
2 107 
2 109 
2 111 
2 113 
2 115 
2 117 
2 119 
2 121 
2 123 
2 125 
2 127 
3 4 
3 65 
3 67 
3 70 
3 72 
3 73 
3 76 
3 78 
3 79 
3 82 
3 84 
3 86 
3 88 
3 89 
3 91 
3 93 
3 96 
3 97 
3 100 
3 101 
3 104 
3 106 
3 108 
3 109 
3 111 
3 113 
3 115 
3 118 
3 119 
3 121 
3 124 
3 125 
3 127 
4 66 
4 68 
4 69 
4 71 
4 74 
4 75 
4 77 
4 80 
4 81 
4 83 
4 85 
4 87 
4 90 
4 92 
4 94 
4 95 
4 98 
4 99 
4 102 
4 103 
4 105 
4 107 
4 110 
4 112 
4 114 
4 116 
4 117 
4 120 
4 122 
4 123 
4 126 
4 128 
5 6 
5 65 
5 67 
5 69 
5 72 
5 74 
5 75 
5 78 
5 80 
5 81 
5 84 
5 86 
5 88 
5 90 
5 91 
5 93 
5 95 
5 98 
5 99 
5 102 
5 103 
5 106 
5 108 
5 110 
5 111 
5 113 
5 115 
5 117 
5 120 
5 121 
5 123 
5 126 
5 127 
6 66 
6 68 
6 70 
6 71 
6 73 
6 76 
6 77 
6 79 
6 82 
6 83 
6 85 
6 87 
6 89 
6 92 
6 94 
6 96 
6 97 
6 100 
6 101 
6 104 
6 105 
6 107 
6 109 
6 112 
6 114 
6 116 
6 118 
6 119 
6 122 
6 124 
6 125 
6 128 
7 8 
7 65 
7 67 
7 69 
7 71 
7 74 
7 76 
7 77 
7 80 
7 82 
7 83 
7 86 
7 88 
7 90 
7 92 
7 93 
7 95 
7 97 
7 100 
7 101 
7 104 
7 105 
7 108 
7 110 
7 112 
7 113 
7 115 
7 117 
7 119 
7 122 
7 123 
7 125 
7 128 
8 66 
8 68 
8 70 
8 72 
8 73 
8 75 
8 78 
8 79 
8 81 
8 84 
8 85 
8 87 
8 89 
8 91 
8 94 
8 96 
8 98 
8 99 
8 102 
8 103 
8 106 
8 107 
8 109 
8 111 
8 114 
8 116 
8 118 
8 120 
8 121 
8 124 
8 126 
8 127 
9 10 
9 65 
9 68 
9 69 
9 71 
9 73 
9 76 
9 78 
9 79 
9 82 
9 84 
9 85 
9 88 
9 90 
9 92 
9 94 
9 95 
9 97 
9 99 
9 102 
9 103 
9 106 
9 107 
9 110 
9 112 
9 114 
9 115 
9 117 
9 119 
9 121 
9 124 
9 125 
9 127 
10 66 
10 67 
10 70 
10 72 
10 74 
10 75 
10 77 
10 80 
10 81 
10 83 
10 86 
10 87 
10 89 
10 91 
10 93 
10 96 
10 98 
10 100 
10 101 
10 104 
10 105 
10 108 
10 109 
10 111 
10 113 
10 116 
10 118 
10 120 
10 122 
10 123 
10 126 
10 128 
11 12 
11 65 
11 67 
11 70 
11 71 
11 73 
11 75 
11 78 
11 80 
11 81 
11 84 
11 86 
11 87 
11 90 
11 92 
11 94 
11 96 
11 97 
11 99 
11 101 
11 104 
11 105 
11 108 
11 109 
11 112 
11 114 
11 116 
11 117 
11 119 
11 121 
11 123 
11 126 
11 127 
12 66 
12 68 
12 69 
12 72 
12 74 
12 76 
12 77 
12 79 
12 82 
12 83 
12 85 
12 88 
12 89 
12 91 
12 93 
12 95 
12 98 
12 100 
12 102 
12 103 
12 106 
12 107 
12 110 
12 111 
12 113 
12 115 
12 118 
12 120 
12 122 
12 124 
12 125 
12 128 
13 14 
13 65 
13 67 
13 69 
13 72 
13 73 
13 75 
13 77 
13 80 
13 82 
13 83 
13 86 
13 88 
13 89 
13 92 
13 94 
13 96 
13 98 
13 99 
13 101 
13 103 
13 106 
13 107 
13 110 
13 111 
13 114 
13 116 
13 118 
13 119 
13 121 
13 123 
13 125 
13 128 
14 66 
14 68 
14 70 
14 71 
14 74 
14 76 
14 78 
14 79 
14 81 
14 84 
14 85 
14 87 
14 90 
14 91 
14 93 
14 95 
14 97 
14 100 
14 102 
14 104 
14 105 
14 108 
14 109 
14 112 
14 113 
14 115 
14 117 
14 120 
14 122 
14 124 
14 126 
14 127 
15 16 
15 65 
15 68 
15 69 
15 71 
15 74 
15 75 
15 77 
15 79 
15 82 
15 84 
15 85 
15 88 
15 90 
15 91 
15 94 
15 96 
15 98 
15 100 
15 101 
15 103 
15 105 
15 108 
15 109 
15 112 
15 113 
15 116 
15 118 
15 120 
15 121 
15 123 
15 125 
15 127 
16 66 
16 67 
16 70 
16 72 
16 73 
16 76 
16 78 
16 80 
16 81 
16 83 
16 86 
16 87 
16 89 
16 92 
16 93 
16 95 
16 97 
16 99 
16 102 
16 104 
16 106 
16 107 
16 110 
16 111 
16 114 
16 115 
16 117 
16 119 
16 122 
16 124 
16 126 
16 128 
17 18 
17 65 
17 67 
17 70 
17 71 
17 73 
17 76 
17 77 
17 79 
17 81 
17 84 
17 86 
17 87 
17 90 
17 92 
17 93 
17 96 
17 98 
17 100 
17 102 
17 103 
17 105 
17 107 
17 110 
17 111 
17 114 
17 115 
17 118 
17 120 
17 122 
17 123 
17 125 
17 127 
18 66 
18 68 
18 69 
18 72 
18 74 
18 75 
18 78 
18 80 
18 82 
18 83 
18 85 
18 88 
18 89 
18 91 
18 94 
18 95 
18 97 
18 99 
18 101 
18 104 
18 106 
18 108 
18 109 
18 112 
18 113 
18 116 
18 117 
18 119 
18 121 
18 124 
18 126 
18 128 
19 20 
19 65 
19 67 
19 69 
19 72 
19 73 
19 75 
19 78 
19 79 
19 81 
19 83 
19 86 
19 88 
19 89 
19 92 
19 94 
19 95 
19 98 
19 100 
19 102 
19 104 
19 105 
19 107 
19 109 
19 112 
19 113 
19 116 
19 117 
19 120 
19 122 
19 124 
19 125 
19 127 
20 66 
20 68 
20 70 
20 71 
20 74 
20 76 
20 77 
20 80 
20 82 
20 84 
20 85 
20 87 
20 90 
20 91 
20 93 
20 96 
20 97 
20 99 
20 101 
20 103 
20 106 
20 108 
20 110 
20 111 
20 114 
20 115 
20 118 
20 119 
20 121 
20 123 
20 126 
20 128 
21 22 
21 65 
21 67 
21 69 
21 71 
21 74 
21 75 
21 77 
21 80 
21 81 
21 83 
21 85 
21 88 
21 90 
21 91 
21 94 
21 96 
21 97 
21 100 
21 102 
21 104 
21 106 
21 107 
21 109 
21 111 
21 114 
21 115 
21 118 
21 119 
21 122 
21 124 
21 126 
21 127 
22 66 
22 68 
22 70 
22 72 
22 73 
22 76 
22 78 
22 79 
22 82 
22 84 
22 86 
22 87 
22 89 
22 92 
22 93 
22 95 
22 98 
22 99 
22 101 
22 103 
22 105 
22 108 
22 110 
22 112 
22 113 
22 116 
22 117 
22 120 
22 121 
22 123 
22 125 
22 128 
23 24 
23 65 
23 67 
23 69 
23 71 
23 73 
23 76 
23 77 
23 79 
23 82 
23 83 
23 85 
23 87 
23 90 
23 92 
23 93 
23 96 
23 98 
23 99 
23 102 
23 104 
23 106 
23 108 
23 109 
23 111 
23 113 
23 116 
23 117 
23 120 
23 121 
23 124 
23 126 
23 128 
24 66 
24 68 
24 70 
24 72 
24 74 
24 75 
24 78 
24 80 
24 81 
24 84 
24 86 
24 88 
24 89 
24 91 
24 94 
24 95 
24 97 
24 100 
24 101 
24 103 
24 105 
24 107 
24 110 
24 112 
24 114 
24 115 
24 118 
24 119 
24 122 
24 123 
24 125 
24 127 
25 26 
25 65 
25 68 
25 69 
25 71 
25 73 
25 75 
25 78 
25 79 
25 81 
25 84 
25 85 
25 87 
25 89 
25 92 
25 94 
25 95 
25 98 
25 100 
25 101 
25 104 
25 106 
25 108 
25 110 
25 111 
25 113 
25 115 
25 118 
25 119 
25 122 
25 123 
25 126 
25 128 
26 66 
26 67 
26 70 
26 72 
26 74 
26 76 
26 77 
26 80 
26 82 
26 83 
26 86 
26 88 
26 90 
26 91 
26 93 
26 96 
26 97 
26 99 
26 102 
26 103 
26 105 
26 107 
26 109 
26 112 
26 114 
26 116 
26 117 
26 120 
26 121 
26 124 
26 125 
26 127 
27 28 
27 65 
27 68 
27 70 
27 71 
27 73 
27 75 
27 77 
27 80 
27 81 
27 83 
27 86 
27 87 
27 89 
27 91 
27 94 
27 96 
27 97 
27 100 
27 102 
27 103 
27 106 
27 108 
27 110 
27 112 
27 113 
27 115 
27 117 
27 120 
27 121 
27 124 
27 125 
27 128 
28 66 
28 67 
28 69 
28 72 
28 74 
28 76 
28 78 
28 79 
28 82 
28 84 
28 85 
28 88 
28 90 
28 92 
28 93 
28 95 
28 98 
28 99 
28 101 
28 104 
28 105 
28 107 
28 109 
28 111 
28 114 
28 116 
28 118 
28 119 
28 122 
28 123 
28 126 
28 127 
29 30 
29 65 
29 68 
29 70 
29 72 
29 73 
29 75 
29 77 
29 79 
29 82 
29 83 
29 85 
29 88 
29 89 
29 91 
29 93 
29 96 
29 98 
29 99 
29 102 
29 104 
29 105 
29 108 
29 110 
29 112 
29 114 
29 115 
29 117 
29 119 
29 122 
29 123 
29 126 
29 127 
30 66 
30 67 
30 69 
30 71 
30 74 
30 76 
30 78 
30 80 
30 81 
30 84 
30 86 
30 87 
30 90 
30 92 
30 94 
30 95 
30 97 
30 100 
30 101 
30 103 
30 106 
30 107 
30 109 
30 111 
30 113 
30 116 
30 118 
30 120 
30 121 
30 124 
30 125 
30 128 
31 32 
31 65 
31 67 
31 70 
31 72 
31 74 
31 75 
31 77 
31 79 
31 81 
31 84 
31 85 
31 87 
31 90 
31 91 
31 93 
31 95 
31 98 
31 100 
31 101 
31 104 
31 106 
31 107 
31 110 
31 112 
31 114 
31 116 
31 117 
31 119 
31 121 
31 124 
31 125 
31 128 
32 66 
32 68 
32 69 
32 71 
32 73 
32 76 
32 78 
32 80 
32 82 
32 83 
32 86 
32 88 
32 89 
32 92 
32 94 
32 96 
32 97 
32 99 
32 102 
32 103 
32 105 
32 108 
32 109 
32 111 
32 113 
32 115 
32 118 
32 120 
32 122 
32 123 
32 126 
32 127 
33 34 
33 65 
33 68 
33 69 
33 72 
33 74 
33 76 
33 77 
33 79 
33 81 
33 83 
33 86 
33 87 
33 89 
33 92 
33 93 
33 95 
33 97 
33 100 
33 102 
33 103 
33 106 
33 108 
33 109 
33 112 
33 114 
33 116 
33 118 
33 119 
33 121 
33 123 
33 126 
33 127 
34 66 
34 67 
34 70 
34 71 
34 73 
34 75 
34 78 
34 80 
34 82 
34 84 
34 85 
34 88 
34 90 
34 91 
34 94 
34 96 
34 98 
34 99 
34 101 
34 104 
34 105 
34 107 
34 110 
34 111 
34 113 
34 115 
34 117 
34 120 
34 122 
34 124 
34 125 
34 128 
35 36 
35 65 
35 67 
35 70 
35 71 
35 74 
35 76 
35 78 
35 79 
35 81 
35 83 
35 85 
35 88 
35 89 
35 91 
35 94 
35 95 
35 97 
35 99 
35 102 
35 104 
35 105 
35 108 
35 110 
35 111 
35 114 
35 116 
35 118 
35 120 
35 121 
35 123 
35 125 
35 128 
36 66 
36 68 
36 69 
36 72 
36 73 
36 75 
36 77 
36 80 
36 82 
36 84 
36 86 
36 87 
36 90 
36 92 
36 93 
36 96 
36 98 
36 100 
36 101 
36 103 
36 106 
36 107 
36 109 
36 112 
36 113 
36 115 
36 117 
36 119 
36 122 
36 124 
36 126 
36 127 
37 38 
37 65 
37 68 
37 69 
37 72 
37 73 
37 76 
37 78 
37 80 
37 81 
37 83 
37 85 
37 87 
37 90 
37 91 
37 93 
37 96 
37 97 
37 99 
37 101 
37 104 
37 106 
37 107 
37 110 
37 112 
37 113 
37 116 
37 118 
37 120 
37 122 
37 123 
37 125 
37 127 
38 66 
38 67 
38 70 
38 71 
38 74 
38 75 
38 77 
38 79 
38 82 
38 84 
38 86 
38 88 
38 89 
38 92 
38 94 
38 95 
38 98 
38 100 
38 102 
38 103 
38 105 
38 108 
38 109 
38 111 
38 114 
38 115 
38 117 
38 119 
38 121 
38 124 
38 126 
38 128 
39 40 
39 65 
39 67 
39 70 
39 71 
39 74 
39 75 
39 78 
39 80 
39 82 
39 83 
39 85 
39 87 
39 89 
39 92 
39 93 
39 95 
39 98 
39 99 
39 101 
39 103 
39 106 
39 108 
39 109 
39 112 
39 114 
39 115 
39 118 
39 120 
39 122 
39 124 
39 125 
39 127 
40 66 
40 68 
40 69 
40 72 
40 73 
40 76 
40 77 
40 79 
40 81 
40 84 
40 86 
40 88 
40 90 
40 91 
40 94 
40 96 
40 97 
40 100 
40 102 
40 104 
40 105 
40 107 
40 110 
40 111 
40 113 
40 116 
40 117 
40 119 
40 121 
40 123 
40 126 
40 128 
41 42 
41 65 
41 67 
41 69 
41 72 
41 73 
41 76 
41 77 
41 80 
41 82 
41 84 
41 85 
41 87 
41 89 
41 91 
41 94 
41 95 
41 97 
41 100 
41 101 
41 103 
41 105 
41 108 
41 110 
41 111 
41 114 
41 116 
41 117 
41 120 
41 122 
41 124 
41 126 
41 127 
42 66 
42 68 
42 70 
42 71 
42 74 
42 75 
42 78 
42 79 
42 81 
42 83 
42 86 
42 88 
42 90 
42 92 
42 93 
42 96 
42 98 
42 99 
42 102 
42 104 
42 106 
42 107 
42 109 
42 112 
42 113 
42 115 
42 118 
42 119 
42 121 
42 123 
42 125 
42 128 
43 44 
43 65 
43 67 
43 69 
43 71 
43 74 
43 75 
43 78 
43 79 
43 82 
43 84 
43 86 
43 87 
43 89 
43 91 
43 93 
43 96 
43 97 
43 99 
43 102 
43 103 
43 105 
43 107 
43 110 
43 112 
43 113 
43 116 
43 118 
43 119 
43 122 
43 124 
43 126 
43 128 
44 66 
44 68 
44 70 
44 72 
44 73 
44 76 
44 77 
44 80 
44 81 
44 83 
44 85 
44 88 
44 90 
44 92 
44 94 
44 95 
44 98 
44 100 
44 101 
44 104 
44 106 
44 108 
44 109 
44 111 
44 114 
44 115 
44 117 
44 120 
44 121 
44 123 
44 125 
44 127 
45 46 
45 65 
45 68 
45 69 
45 71 
45 73 
45 76 
45 77 
45 80 
45 81 
45 84 
45 86 
45 88 
45 89 
45 91 
45 93 
45 95 
45 98 
45 99 
45 101 
45 104 
45 105 
45 107 
45 109 
45 112 
45 114 
45 115 
45 118 
45 120 
45 121 
45 124 
45 126 
45 128 
46 66 
46 67 
46 70 
46 72 
46 74 
46 75 
46 78 
46 79 
46 82 
46 83 
46 85 
46 87 
46 90 
46 92 
46 94 
46 96 
46 97 
46 100 
46 102 
46 103 
46 106 
46 108 
46 110 
46 111 
46 113 
46 116 
46 117 
46 119 
46 122 
46 123 
46 125 
46 127 
47 48 
47 65 
47 68 
47 70 
47 71 
47 73 
47 75 
47 78 
47 79 
47 82 
47 83 
47 86 
47 88 
47 90 
47 91 
47 93 
47 95 
47 97 
47 100 
47 101 
47 103 
47 106 
47 107 
47 109 
47 111 
47 114 
47 116 
47 117 
47 120 
47 122 
47 123 
47 126 
47 128 
48 66 
48 67 
48 69 
48 72 
48 74 
48 76 
48 77 
48 80 
48 81 
48 84 
48 85 
48 87 
48 89 
48 92 
48 94 
48 96 
48 98 
48 99 
48 102 
48 104 
48 105 
48 108 
48 110 
48 112 
48 113 
48 115 
48 118 
48 119 
48 121 
48 124 
48 125 
48 127 
49 50 
49 65 
49 68 
49 70 
49 72 
49 73 
49 75 
49 77 
49 80 
49 81 
49 84 
49 85 
49 88 
49 90 
49 92 
49 93 
49 95 
49 97 
49 99 
49 102 
49 103 
49 105 
49 108 
49 109 
49 111 
49 113 
49 116 
49 118 
49 119 
49 122 
49 124 
49 125 
49 128 
50 66 
50 67 
50 69 
50 71 
50 74 
50 76 
50 78 
50 79 
50 82 
50 83 
50 86 
50 87 
50 89 
50 91 
50 94 
50 96 
50 98 
50 100 
50 101 
50 104 
50 106 
50 107 
50 110 
50 112 
50 114 
50 115 
50 117 
50 120 
50 121 
50 123 
50 126 
50 127 
51 52 
51 65 
51 68 
51 70 
51 72 
51 74 
51 75 
51 77 
51 79 
51 82 
51 83 
51 86 
51 87 
51 90 
51 92 
51 94 
51 95 
51 97 
51 99 
51 101 
51 104 
51 105 
51 107 
51 110 
51 111 
51 113 
51 115 
51 118 
51 120 
51 121 
51 124 
51 126 
51 127 
52 66 
52 67 
52 69 
52 71 
52 73 
52 76 
52 78 
52 80 
52 81 
52 84 
52 85 
52 88 
52 89 
52 91 
52 93 
52 96 
52 98 
52 100 
52 102 
52 103 
52 106 
52 108 
52 109 
52 112 
52 114 
52 116 
52 117 
52 119 
52 122 
52 123 
52 125 
52 128 
53 54 
53 65 
53 67 
53 70 
53 72 
53 74 
53 76 
53 77 
53 79 
53 81 
53 84 
53 85 
53 88 
53 89 
53 92 
53 94 
53 96 
53 97 
53 99 
53 101 
53 103 
53 106 
53 107 
53 109 
53 112 
53 113 
53 115 
53 117 
53 120 
53 122 
53 123 
53 126 
53 128 
54 66 
54 68 
54 69 
54 71 
54 73 
54 75 
54 78 
54 80 
54 82 
54 83 
54 86 
54 87 
54 90 
54 91 
54 93 
54 95 
54 98 
54 100 
54 102 
54 104 
54 105 
54 108 
54 110 
54 111 
54 114 
54 116 
54 118 
54 119 
54 121 
54 124 
54 125 
54 127 
55 56 
55 65 
55 68 
55 69 
55 72 
55 74 
55 76 
55 78 
55 79 
55 81 
55 83 
55 86 
55 87 
55 90 
55 91 
55 94 
55 96 
55 98 
55 99 
55 101 
55 103 
55 105 
55 108 
55 109 
55 111 
55 114 
55 115 
55 117 
55 119 
55 122 
55 124 
55 125 
55 128 
56 66 
56 67 
56 70 
56 71 
56 73 
56 75 
56 77 
56 80 
56 82 
56 84 
56 85 
56 88 
56 89 
56 92 
56 93 
56 95 
56 97 
56 100 
56 102 
56 104 
56 106 
56 107 
56 110 
56 112 
56 113 
56 116 
56 118 
56 120 
56 121 
56 123 
56 126 
56 127 
57 58 
57 65 
57 68 
57 70 
57 71 
57 74 
57 76 
57 78 
57 80 
57 81 
57 83 
57 85 
57 88 
57 89 
57 92 
57 93 
57 96 
57 98 
57 100 
57 101 
57 103 
57 105 
57 107 
57 110 
57 111 
57 113 
57 116 
57 117 
57 119 
57 121 
57 124 
57 126 
57 127 
58 66 
58 67 
58 69 
58 72 
58 73 
58 75 
58 77 
58 79 
58 82 
58 84 
58 86 
58 87 
58 90 
58 91 
58 94 
58 95 
58 97 
58 99 
58 102 
58 104 
58 106 
58 108 
58 109 
58 112 
58 114 
58 115 
58 118 
58 120 
58 122 
58 123 
58 125 
58 128 
59 60 
59 65 
59 67 
59 70 
59 72 
59 73 
59 76 
59 78 
59 80 
59 82 
59 83 
59 85 
59 87 
59 90 
59 91 
59 94 
59 95 
59 98 
59 100 
59 102 
59 103 
59 105 
59 107 
59 109 
59 112 
59 113 
59 115 
59 118 
59 119 
59 121 
59 123 
59 126 
59 128 
60 66 
60 68 
60 69 
60 71 
60 74 
60 75 
60 77 
60 79 
60 81 
60 84 
60 86 
60 88 
60 89 
60 92 
60 93 
60 96 
60 97 
60 99 
60 101 
60 104 
60 106 
60 108 
60 110 
60 111 
60 114 
60 116 
60 117 
60 120 
60 122 
60 124 
60 125 
60 127 
61 62 
61 65 
61 68 
61 69 
61 72 
61 74 
61 75 
61 78 
61 80 
61 82 
61 84 
61 85 
61 87 
61 89 
61 92 
61 93 
61 96 
61 97 
61 100 
61 102 
61 104 
61 105 
61 107 
61 109 
61 111 
61 114 
61 115 
61 117 
61 120 
61 121 
61 123 
61 125 
61 128 
62 66 
62 67 
62 70 
62 71 
62 73 
62 76 
62 77 
62 79 
62 81 
62 83 
62 86 
62 88 
62 90 
62 91 
62 94 
62 95 
62 98 
62 99 
62 101 
62 103 
62 106 
62 108 
62 110 
62 112 
62 113 
62 116 
62 118 
62 119 
62 122 
62 124 
62 126 
62 127 
63 64 
63 65 
63 68 
63 70 
63 71 
63 74 
63 76 
63 77 
63 80 
63 82 
63 84 
63 86 
63 87 
63 89 
63 91 
63 94 
63 95 
63 98 
63 99 
63 102 
63 104 
63 106 
63 107 
63 109 
63 111 
63 113 
63 116 
63 117 
63 119 
63 122 
63 123 
63 125 
63 127 
64 66 
64 67 
64 69 
64 72 
64 73 
64 75 
64 78 
64 79 
64 81 
64 83 
64 85 
64 88 
64 90 
64 92 
64 93 
64 96 
64 97 
64 100 
64 101 
64 103 
64 105 
64 108 
64 110 
64 112 
64 114 
64 115 
64 118 
64 120 
64 121 
64 124 
64 126 
64 128 
65 66 
67 68 
69 70 
71 72 
73 74 
75 76 
77 78 
79 80 
81 82 
83 84 
85 86 
87 88 
89 90 
91 92 
93 94 
95 96 
97 98 
99 100 
101 102 
103 104 
105 106 
107 108 
109 110 
111 112 
113 114 
115 116 
117 118 
119 120 
121 122 
123 124 
125 126 
127 128 
